(set-info :Origin "This instance was generated by: BanditFuzz-- an RL fuzzer for SMT solvers" )
(set-info :Author "Joe Scott, Fed Mora, Vijay Ganesh" )
(set-info :Contact "Joe Scott, joseph.scott@uwaterloo.ca")
(set-logic QF_BV)
(declare-const bool_0 Bool)
(declare-const bool_1 Bool)
(declare-const bool_2 Bool)
(declare-const bool_3 Bool)
(declare-const bool_4 Bool)
(declare-const bv_0 (_ BitVec 32))
(declare-const bv_1 (_ BitVec 32))
(declare-const bv_2 (_ BitVec 32))
(declare-const bv_3 (_ BitVec 32))
(declare-const bv_4 (_ BitVec 32))
(assert (bvsge (bvsmod (bvadd bv_3 #x01d263cd ) (bvand bv_4 bv_2)) (bvsdiv (bvand #x421b424f  #xb1bfedeb ) (bvor bv_4 bv_3))))
(assert (bvsle (bvlshr (bvand bv_2 #x166b8019 ) (bvlshr bv_3 #x5484f3ae )) (bvmul (bvsub #x5cdb9398  bv_4) (bvsub bv_1 #xa871e0c4 ))))
(assert (xor (=> (bvult bv_4 #xaa0ff6bd ) (bvult #xdc91e82a  bv_3)) (bvule (bvurem bv_4 bv_2) (bvsrem #xa532e9d8  #x424925a4 ))))
(assert (bvule (bvsdiv (bvmul #xc8de6e85  #xb85888f2 ) (bvnand bv_3 #xd7665532 )) (bvand (bvashr bv_3 bv_2) (bvor bv_4 bv_4))))
(assert (or (bvugt (bvxnor #x8044411d  #x3957e23f ) (bvmul bv_3 bv_0)) (bvslt (bvnand #x496ba05f  bv_4) (bvadd bv_3 bv_4))))
(check-sat)
(exit)
